c Lingeling SAT Solver
c 
c Version azf 92032848c138b2f33629ad24394d60a3787a1046
c 
c Copyright (C) 2010-2014 Armin Biere JKU Linz Austria.
c All rights reserved.
c 
c released Don Mai 22 22:08:00 CEST 2014
c compiled Mon Oct  6 05:55:43 PDT 2014
c 
c gcc (Ubuntu 4.8.2-19ubuntu1) 4.8.2
c -Wall -O3 -DNDBLSCR -DNLGLOG -DNDEBUG -DNCHKSOL -DNLGLPICOSAT -DNLGLDRUPLIG
c -DNLGLYALSAT
c Linux ubuntu 3.13.0-32-generic x86_64
c 
c reading input file benchmark-sat/translations/gc-queen6_6-6.cnf
c no embedded options
c found 'p cnf 216 4056' header
c read 216 variables, 4056 clauses, 8256 literals in 0.00 seconds
c 
c  seconds         irredundant          redundant clauses agility   height
c          variables clauses conflicts large ternary binary    glue         MB
c 
c S    0.0     216     4056         0       0      0     0   0  0.0   0.0    0
c S    1.0     163     1740     35230    6441     84   379  20  7.8  11.7    1
c 
c  seconds         irredundant          redundant clauses agility   height
c          variables clauses conflicts large ternary binary    glue         MB
c 
s UNSATISFIABLE
c
c    0.079   7% simplifying
c    1.058  93% search
c ==================================
c    1.138 100% all
c 
c 46301 decisions, 40702.8 decisions/sec
c 38951 conflicts, 34241.5 conflicts/sec
c 1633340 propagations, 1.4 megaprops/sec
c 1.1 seconds, 2.4 MB
